(set-logic QF_S)
(declare-fun var0 () Int)
(declare-fun var1 () Int)
(declare-fun var2 () String)
(declare-fun var3 () String)
(declare-fun var4 () Int)
(declare-fun var5 () Int)
(declare-fun var6 () String)
(declare-fun var7 () String)
(assert (> var0 var1))
(assert (< (str.indexof var2 var3 var4) (str.to.int (str.at "WI" var5))))
(assert (>= var1 var1))
(assert (> (str.len (str.substr var6 var4 var5)) (str.indexof var7 var6 var1)))
(check-sat)